p ocr 949 870 1898
1 950
1 951
2 950
3 950
4 950
5 950
6 950
7 950
8 950
9 950
10 950
11 950
12 950
13 950
14 950
15 950
16 950
17 950
18 950
19 950
20 950
21 950
22 950
23 950
24 950
25 950
26 950
27 950
28 950
29 950
30 950
31 950
32 950
33 950
34 950
35 950
36 950
37 950
38 950
39 950
40 950
41 950
42 950
43 950
44 950
45 950
46 950
47 950
48 950
49 950
50 950
51 950
52 950
53 950
54 950
55 950
56 950
57 950
58 950
59 950
60 950
61 950
62 950
63 950
64 950
65 950
66 950
67 950
68 950
69 950
70 950
71 950
72 950
73 950
74 950
75 950
76 950
77 950
78 950
79 950
80 950
81 950
82 950
83 950
84 950
85 950
86 950
87 950
88 950
89 950
90 950
91 950
92 950
93 950
94 950
95 950
96 950
97 950
98 950
99 950
100 950
101 950
102 950
103 950
104 950
105 950
106 950
107 950
108 950
109 950
110 950
111 950
112 950
113 950
114 950
115 950
116 950
117 950
118 950
119 950
120 950
121 950
121 952
121 953
121 954
121 955
121 956
121 957
121 958
121 959
121 960
121 961
121 962
121 963
121 964
121 965
121 966
121 967
121 968
121 969
121 970
121 971
121 972
121 973
121 974
121 975
121 976
121 977
121 978
121 979
121 980
121 981
121 982
121 983
121 984
121 985
121 986
121 987
121 988
121 989
121 990
121 991
121 992
121 993
121 994
121 995
121 996
121 997
121 998
121 999
121 1000
121 1001
121 1002
121 1003
121 1004
121 1005
121 1006
121 1007
121 1008
121 1009
121 1010
121 1011
121 1012
121 1013
121 1014
121 1015
121 1016
121 1017
121 1018
121 1019
121 1020
121 1021
121 1022
121 1023
121 1024
121 1025
121 1026
121 1027
121 1028
121 1029
121 1030
121 1031
121 1032
121 1033
121 1034
121 1035
121 1036
121 1037
121 1038
121 1039
121 1040
121 1041
121 1042
121 1043
121 1044
121 1045
121 1046
121 1047
121 1048
121 1049
121 1050
121 1051
121 1052
121 1053
121 1054
121 1055
121 1056
121 1057
121 1058
121 1059
121 1060
121 1061
121 1062
121 1063
121 1064
121 1065
121 1066
121 1067
121 1068
121 1069
121 1070
121 1071
122 951
123 951
124 951
125 951
126 951
127 951
128 951
129 951
130 951
131 951
132 951
133 951
134 951
135 951
136 951
136 1072
136 1073
136 1074
136 1075
136 1076
137 1072
137 1073
137 1074
137 1075
137 1076
138 1072
138 1073
138 1074
138 1075
138 1076
139 1072
139 1073
139 1074
139 1075
139 1076
140 1072
140 1073
140 1074
140 1075
140 1076
140 1077
140 1078
141 1077
142 1077
143 1077
144 1077
145 1077
146 1077
147 1077
148 1077
149 1077
150 1077
151 1077
152 1077
153 1077
154 1077
155 1077
156 1077
157 1077
158 1077
159 1077
160 1077
161 1077
162 1077
163 1077
164 1077
165 1077
166 1077
167 1077
168 1077
169 1077
170 1077
171 1077
172 1077
173 1077
174 1077
175 1077
176 1077
177 1077
178 1077
179 1077
180 1077
181 1077
182 1077
183 1077
184 1077
185 1077
186 1077
187 1077
188 1077
189 1077
190 1077
191 1077
192 1077
193 1077
194 1077
195 1077
196 1077
197 1077
198 1077
199 1077
200 1077
201 1077
202 1077
203 1077
204 1077
205 1077
206 1077
207 1077
208 1077
209 1077
210 1077
211 1077
212 1077
213 1077
214 1077
215 1077
216 1077
217 1077
218 1077
218 1079
218 1080
218 1081
218 1082
218 1083
218 1084
218 1085
218 1086
218 1087
218 1088
218 1089
218 1090
218 1091
218 1092
218 1093
218 1094
218 1095
218 1096
218 1097
218 1098
218 1099
218 1100
218 1101
218 1102
218 1103
218 1104
218 1105
218 1106
218 1107
218 1108
218 1109
218 1110
218 1111
218 1112
218 1113
218 1114
218 1115
218 1116
218 1117
218 1118
218 1119
218 1120
218 1121
218 1122
218 1123
218 1124
218 1125
218 1126
218 1127
218 1128
218 1129
218 1130
218 1131
218 1132
218 1133
218 1134
218 1135
218 1136
218 1137
218 1138
218 1139
218 1140
218 1141
218 1142
218 1143
218 1144
218 1145
218 1146
218 1147
218 1148
218 1149
218 1150
218 1151
218 1152
218 1153
218 1154
218 1155
218 1156
219 1078
220 1078
221 1078
222 1078
223 1078
224 1078
225 1078
226 1078
227 1078
228 1078
229 1078
230 1078
230 1157
230 1158
230 1159
230 1160
230 1161
231 1157
231 1158
231 1159
231 1160
231 1161
232 1157
232 1158
232 1159
232 1160
232 1161
233 1157
233 1158
233 1159
233 1160
233 1161
234 1157
234 1158
234 1159
234 1160
234 1161
234 1162
234 1163
235 1162
236 1162
237 1162
238 1162
239 1162
240 1162
241 1162
242 1162
243 1162
244 1162
245 1162
246 1162
247 1162
248 1162
249 1162
250 1162
251 1162
252 1162
253 1162
254 1162
255 1162
256 1162
257 1162
258 1162
259 1162
260 1162
261 1162
262 1162
263 1162
264 1162
265 1162
266 1162
267 1162
268 1162
269 1162
270 1162
271 1162
272 1162
273 1162
274 1162
275 1162
276 1162
277 1162
278 1162
279 1162
280 1162
281 1162
282 1162
283 1162
284 1162
285 1162
286 1162
287 1162
288 1162
289 1162
290 1162
291 1162
292 1162
293 1162
294 1162
295 1162
296 1162
297 1162
298 1162
299 1162
300 1162
301 1162
302 1162
303 1162
304 1162
305 1162
306 1162
307 1162
308 1162
309 1162
310 1162
311 1162
312 1162
313 1162
314 1162
315 1162
316 1162
317 1162
318 1162
319 1162
320 1162
321 1162
322 1162
323 1162
324 1162
325 1162
326 1162
327 1162
328 1162
329 1162
330 1162
331 1162
332 1162
333 1162
334 1162
335 1162
336 1162
337 1162
338 1162
339 1162
340 1162
341 1162
342 1162
343 1162
344 1162
345 1162
346 1162
347 1162
348 1162
349 1162
350 1162
351 1162
352 1162
353 1162
354 1162
355 1162
356 1162
357 1162
358 1162
359 1162
360 1162
361 1162
362 1162
363 1162
364 1162
365 1162
366 1162
367 1162
368 1162
369 1162
370 1162
370 1164
370 1165
370 1166
370 1167
370 1168
370 1169
370 1170
370 1171
370 1172
370 1173
370 1174
370 1175
370 1176
370 1177
370 1178
370 1179
370 1180
370 1181
370 1182
370 1183
370 1184
370 1185
370 1186
370 1187
370 1188
370 1189
370 1190
370 1191
370 1192
370 1193
370 1194
370 1195
370 1196
370 1197
370 1198
370 1199
370 1200
370 1201
370 1202
370 1203
370 1204
370 1205
370 1206
370 1207
370 1208
370 1209
370 1210
370 1211
370 1212
370 1213
370 1214
370 1215
370 1216
370 1217
370 1218
370 1219
370 1220
370 1221
370 1222
370 1223
370 1224
370 1225
370 1226
370 1227
370 1228
370 1229
370 1230
370 1231
370 1232
370 1233
370 1234
370 1235
370 1236
370 1237
370 1238
370 1239
370 1240
370 1241
370 1242
370 1243
370 1244
370 1245
370 1246
370 1247
370 1248
370 1249
370 1250
370 1251
370 1252
370 1253
370 1254
370 1255
370 1256
370 1257
370 1258
370 1259
370 1260
370 1261
370 1262
370 1263
370 1264
370 1265
370 1266
370 1267
370 1268
370 1269
370 1270
370 1271
370 1272
370 1273
370 1274
370 1275
370 1276
370 1277
370 1278
370 1279
370 1280
370 1281
370 1282
370 1283
370 1284
370 1285
370 1286
370 1287
370 1288
370 1289
370 1290
370 1291
370 1292
370 1293
370 1294
370 1295
370 1296
370 1297
370 1298
370 1299
371 1163
372 1163
373 1163
374 1163
375 1163
376 1163
377 1163
378 1163
379 1163
380 1163
381 1163
382 1163
383 1163
384 1163
385 1163
386 1163
386 1300
386 1301
386 1302
386 1303
386 1304
387 1300
387 1301
387 1302
387 1303
387 1304
388 1300
388 1301
388 1302
388 1303
388 1304
389 1300
389 1301
389 1302
389 1303
389 1304
390 1300
390 1301
390 1302
390 1303
390 1304
390 1305
390 1306
391 1305
392 1305
393 1305
394 1305
395 1305
396 1305
397 1305
398 1305
399 1305
400 1305
401 1305
402 1305
403 1305
404 1305
405 1305
406 1305
407 1305
408 1305
409 1305
410 1305
411 1305
412 1305
413 1305
414 1305
415 1305
416 1305
417 1305
418 1305
419 1305
420 1305
421 1305
422 1305
423 1305
424 1305
425 1305
426 1305
427 1305
428 1305
429 1305
430 1305
431 1305
432 1305
433 1305
434 1305
435 1305
436 1305
437 1305
438 1305
439 1305
440 1305
441 1305
442 1305
443 1305
444 1305
445 1305
446 1305
447 1305
448 1305
449 1305
450 1305
451 1305
452 1305
453 1305
454 1305
455 1305
456 1305
457 1305
458 1305
459 1305
460 1305
461 1305
462 1305
463 1305
464 1305
465 1305
466 1305
467 1305
468 1305
468 1307
468 1308
468 1309
468 1310
468 1311
468 1312
468 1313
468 1314
468 1315
468 1316
468 1317
468 1318
468 1319
468 1320
468 1321
468 1322
468 1323
468 1324
468 1325
468 1326
468 1327
468 1328
468 1329
468 1330
468 1331
468 1332
468 1333
468 1334
468 1335
468 1336
468 1337
468 1338
468 1339
468 1340
468 1341
468 1342
468 1343
468 1344
468 1345
468 1346
468 1347
468 1348
468 1349
468 1350
468 1351
468 1352
468 1353
468 1354
468 1355
468 1356
468 1357
468 1358
468 1359
468 1360
468 1361
468 1362
468 1363
468 1364
468 1365
468 1366
468 1367
468 1368
468 1369
468 1370
468 1371
468 1372
468 1373
468 1374
468 1375
468 1376
468 1377
468 1378
468 1379
468 1380
468 1381
468 1382
468 1383
468 1384
469 1306
470 1306
471 1306
472 1306
473 1306
474 1306
475 1306
476 1306
477 1306
478 1306
479 1306
480 1306
480 1385
480 1386
480 1387
480 1388
480 1389
481 1385
481 1386
481 1387
481 1388
481 1389
482 1385
482 1386
482 1387
482 1388
482 1389
483 1385
483 1386
483 1387
483 1388
483 1389
484 1385
484 1386
484 1387
484 1388
484 1389
484 1390
484 1391
485 1390
486 1390
487 1390
488 1390
489 1390
490 1390
491 1390
492 1390
493 1390
494 1390
495 1390
496 1390
497 1390
498 1390
499 1390
500 1390
501 1390
502 1390
503 1390
504 1390
505 1390
506 1390
507 1390
508 1390
509 1390
510 1390
511 1390
512 1390
513 1390
514 1390
515 1390
516 1390
517 1390
518 1390
519 1390
520 1390
521 1390
522 1390
523 1390
524 1390
525 1390
526 1390
527 1390
528 1390
529 1390
530 1390
531 1390
532 1390
533 1390
534 1390
535 1390
536 1390
537 1390
538 1390
539 1390
540 1390
541 1390
542 1390
543 1390
544 1390
545 1390
546 1390
547 1390
548 1390
549 1390
550 1390
551 1390
552 1390
553 1390
554 1390
555 1390
556 1390
557 1390
558 1390
559 1390
560 1390
561 1390
562 1390
563 1390
564 1390
565 1390
566 1390
567 1390
568 1390
569 1390
570 1390
571 1390
572 1390
573 1390
574 1390
575 1390
576 1390
577 1390
578 1390
579 1390
580 1390
581 1390
582 1390
583 1390
584 1390
585 1390
586 1390
587 1390
588 1390
589 1390
590 1390
591 1390
592 1390
593 1390
594 1390
595 1390
596 1390
597 1390
598 1390
599 1390
600 1390
601 1390
602 1390
603 1390
604 1390
605 1390
606 1390
607 1390
608 1390
609 1390
610 1390
611 1390
612 1390
613 1390
614 1390
615 1390
616 1390
617 1390
618 1390
619 1390
620 1390
621 1390
622 1390
623 1390
624 1390
625 1390
626 1390
627 1390
628 1390
629 1390
630 1390
631 1390
632 1390
633 1390
634 1390
635 1390
636 1390
637 1390
638 1390
639 1390
640 1390
641 1390
642 1390
643 1390
644 1390
645 1390
646 1390
647 1390
648 1390
649 1390
650 1390
651 1390
652 1390
653 1390
654 1390
655 1390
656 1390
657 1390
658 1390
659 1390
660 1390
661 1390
662 1390
663 1390
664 1390
665 1390
666 1390
667 1390
668 1390
669 1390
670 1390
671 1390
672 1390
673 1390
674 1390
675 1390
676 1390
677 1390
678 1390
679 1390
680 1390
681 1390
682 1390
683 1390
684 1390
685 1390
686 1390
687 1390
688 1390
689 1390
690 1390
691 1390
692 1390
693 1390
694 1390
695 1390
696 1390
697 1390
698 1390
699 1390
700 1390
701 1390
702 1390
703 1390
704 1390
705 1390
706 1390
707 1390
708 1390
709 1390
710 1390
711 1390
712 1390
713 1390
714 1390
715 1390
715 1392
715 1393
715 1394
715 1395
715 1396
715 1397
715 1398
715 1399
715 1400
715 1401
715 1402
715 1403
715 1404
715 1405
715 1406
715 1407
715 1408
715 1409
715 1410
715 1411
715 1412
715 1413
715 1414
715 1415
715 1416
715 1417
715 1418
715 1419
715 1420
715 1421
715 1422
715 1423
715 1424
715 1425
715 1426
715 1427
715 1428
715 1429
715 1430
715 1431
715 1432
715 1433
715 1434
715 1435
715 1436
715 1437
715 1438
715 1439
715 1440
715 1441
715 1442
715 1443
715 1444
715 1445
715 1446
715 1447
715 1448
715 1449
715 1450
715 1451
715 1452
715 1453
715 1454
715 1455
715 1456
715 1457
715 1458
715 1459
715 1460
715 1461
715 1462
715 1463
715 1464
715 1465
715 1466
715 1467
715 1468
715 1469
715 1470
715 1471
715 1472
715 1473
715 1474
715 1475
715 1476
715 1477
715 1478
715 1479
715 1480
715 1481
715 1482
715 1483
715 1484
715 1485
715 1486
715 1487
715 1488
715 1489
715 1490
715 1491
715 1492
715 1493
715 1494
715 1495
715 1496
715 1497
715 1498
715 1499
715 1500
715 1501
715 1502
715 1503
715 1504
715 1505
715 1506
715 1507
715 1508
715 1509
715 1510
715 1511
715 1512
715 1513
715 1514
715 1515
715 1516
715 1517
715 1518
715 1519
715 1520
715 1521
715 1522
715 1523
715 1524
715 1525
715 1526
715 1527
715 1528
715 1529
715 1530
715 1531
715 1532
715 1533
715 1534
715 1535
715 1536
715 1537
715 1538
715 1539
715 1540
715 1541
715 1542
715 1543
715 1544
715 1545
715 1546
715 1547
715 1548
715 1549
715 1550
715 1551
715 1552
715 1553
715 1554
715 1555
715 1556
715 1557
715 1558
715 1559
715 1560
715 1561
715 1562
715 1563
715 1564
715 1565
715 1566
715 1567
715 1568
715 1569
715 1570
715 1571
715 1572
715 1573
715 1574
715 1575
715 1576
715 1577
715 1578
715 1579
715 1580
715 1581
715 1582
715 1583
715 1584
715 1585
715 1586
715 1587
715 1588
715 1589
715 1590
715 1591
715 1592
715 1593
715 1594
715 1595
715 1596
715 1597
715 1598
715 1599
715 1600
715 1601
715 1602
715 1603
715 1604
715 1605
715 1606
715 1607
715 1608
715 1609
715 1610
715 1611
715 1612
715 1613
715 1614
715 1615
715 1616
715 1617
715 1618
715 1619
715 1620
715 1621
715 1622
716 1391
717 1391
718 1391
719 1391
720 1391
721 1391
722 1391
723 1391
724 1391
725 1391
726 1391
727 1391
728 1391
729 1391
730 1391
731 1391
732 1391
733 1391
734 1391
735 1391
736 1391
736 1623
736 1624
736 1625
736 1626
736 1627
737 1623
737 1624
737 1625
737 1626
737 1627
738 1623
738 1624
738 1625
738 1626
738 1627
739 1623
739 1624
739 1625
739 1626
739 1627
740 1623
740 1624
740 1625
740 1626
740 1627
740 1628
740 1629
741 1628
742 1628
743 1628
744 1628
745 1628
746 1628
747 1628
748 1628
749 1628
750 1628
751 1628
752 1628
753 1628
754 1628
755 1628
756 1628
757 1628
758 1628
759 1628
760 1628
761 1628
762 1628
763 1628
764 1628
765 1628
766 1628
767 1628
768 1628
769 1628
770 1628
771 1628
772 1628
773 1628
774 1628
775 1628
776 1628
777 1628
778 1628
779 1628
780 1628
781 1628
782 1628
783 1628
784 1628
785 1628
786 1628
787 1628
788 1628
789 1628
790 1628
791 1628
792 1628
793 1628
794 1628
795 1628
796 1628
797 1628
798 1628
799 1628
800 1628
801 1628
802 1628
803 1628
804 1628
805 1628
806 1628
807 1628
808 1628
809 1628
810 1628
811 1628
812 1628
813 1628
814 1628
815 1628
816 1628
817 1628
818 1628
819 1628
820 1628
821 1628
822 1628
823 1628
824 1628
825 1628
826 1628
827 1628
828 1628
829 1628
830 1628
831 1628
832 1628
833 1628
834 1628
835 1628
836 1628
837 1628
838 1628
839 1628
840 1628
841 1628
842 1628
843 1628
844 1628
845 1628
846 1628
847 1628
848 1628
849 1628
850 1628
851 1628
852 1628
853 1628
854 1628
855 1628
856 1628
857 1628
858 1628
859 1628
860 1628
861 1628
862 1628
863 1628
864 1628
865 1628
866 1628
867 1628
868 1628
869 1628
870 1628
871 1628
872 1628
873 1628
874 1628
875 1628
876 1628
877 1628
878 1628
879 1628
880 1628
881 1628
882 1628
883 1628
884 1628
885 1628
886 1628
887 1628
888 1628
889 1628
890 1628
891 1628
892 1628
893 1628
894 1628
895 1628
896 1628
897 1628
898 1628
899 1628
900 1628
901 1628
902 1628
903 1628
904 1628
905 1628
906 1628
907 1628
908 1628
909 1628
910 1628
911 1628
912 1628
913 1628
914 1628
915 1628
916 1628
917 1628
918 1628
919 1628
920 1628
921 1628
922 1628
923 1628
924 1628
925 1628
926 1628
927 1628
928 1628
929 1628
930 1628
930 1630
930 1631
930 1632
930 1633
930 1634
930 1635
930 1636
930 1637
930 1638
930 1639
930 1640
930 1641
930 1642
930 1643
930 1644
930 1645
930 1646
930 1647
930 1648
930 1649
930 1650
930 1651
930 1652
930 1653
930 1654
930 1655
930 1656
930 1657
930 1658
930 1659
930 1660
930 1661
930 1662
930 1663
930 1664
930 1665
930 1666
930 1667
930 1668
930 1669
930 1670
930 1671
930 1672
930 1673
930 1674
930 1675
930 1676
930 1677
930 1678
930 1679
930 1680
930 1681
930 1682
930 1683
930 1684
930 1685
930 1686
930 1687
930 1688
930 1689
930 1690
930 1691
930 1692
930 1693
930 1694
930 1695
930 1696
930 1697
930 1698
930 1699
930 1700
930 1701
930 1702
930 1703
930 1704
930 1705
930 1706
930 1707
930 1708
930 1709
930 1710
930 1711
930 1712
930 1713
930 1714
930 1715
930 1716
930 1717
930 1718
930 1719
930 1720
930 1721
930 1722
930 1723
930 1724
930 1725
930 1726
930 1727
930 1728
930 1729
930 1730
930 1731
930 1732
930 1733
930 1734
930 1735
930 1736
930 1737
930 1738
930 1739
930 1740
930 1741
930 1742
930 1743
930 1744
930 1745
930 1746
930 1747
930 1748
930 1749
930 1750
930 1751
930 1752
930 1753
930 1754
930 1755
930 1756
930 1757
930 1758
930 1759
930 1760
930 1761
930 1762
930 1763
930 1764
930 1765
930 1766
930 1767
930 1768
930 1769
930 1770
930 1771
930 1772
930 1773
930 1774
930 1775
930 1776
930 1777
930 1778
930 1779
930 1780
930 1781
930 1782
930 1783
930 1784
930 1785
930 1786
930 1787
930 1788
930 1789
930 1790
930 1791
930 1792
930 1793
930 1794
930 1795
930 1796
930 1797
930 1798
930 1799
930 1800
930 1801
930 1802
930 1803
930 1804
930 1805
930 1806
930 1807
930 1808
930 1809
930 1810
930 1811
930 1812
930 1813
930 1814
930 1815
930 1816
930 1817
930 1818
930 1819
931 1629
932 1629
933 1629
934 1629
935 1629
936 1629
937 1629
938 1629
939 1629
940 1629
941 1629
942 1629
943 1629
944 1629
945 1629
946 1629
947 1629
948 1629
949 1629